====================================================================================================================
File name: 100_5_64_9.def
Creation date: Mon Nov 24 20:40:30 CET 2014
Website: http://imopse.ii.pwr.edu.pl/
Reference:
Myszkowski P. B., Skowronski M. E., Olech L., Oslizlo K.,
Hybrid Ant Colony Optimization in solving Multi-Skill Resource-Constrained Project Scheduling Problem,
Soft Computing, DOI: DOI 10.1007/s00500-014-1455-x
====================================================================================================================
General characteristics:
Tasks: 100
Resources: 5
Precedence relations: 64
Number of skill types: 9
====================================================================================================================
ResourceID 	 Salary 	 Skills
1	 	 	12.8	 	 Q6: 0 	  Q2: 0 	  Q1: 1 	  Q8: 0 	  Q0: 2 	  Q4: 2
2	 	 	77.0	 	 Q7: 2 	  Q5: 1 	  Q8: 0 	  Q0: 1 	  Q2: 1 	  Q6: 0
3	 	 	64.1	 	 Q8: 2 	  Q4: 2 	  Q3: 1 	  Q1: 1 	  Q5: 2 	  Q6: 1
4	 	 	55.2	 	 Q1: 0 	  Q0: 2 	  Q2: 0 	  Q7: 0 	  Q5: 0 	  Q3: 2
5	 	 	10.0	 	 Q5: 0 	  Q2: 2 	  Q0: 2 	  Q6: 1 	  Q8: 2 	  Q1: 2
====================================================================================================================
TaskID 	 Duration 	 Skill 	 Predecessor IDs
1	 	 	15	 Q0: 1
2	 	 	10	 Q1: 1
3	 	 	22	 Q7: 0
4	 	 	37	 Q1: 2
5	 	 	31	 Q3: 2
6	 	 	38	 Q3: 2
7	 	 	15	 Q6: 1
8	 	 	14	 Q5: 2
9	 	 	18	 Q5: 1
10	 	 	27	 Q8: 2
11	 	 	21	 Q1: 0
12	 	 	34	 Q5: 2
13	 	 	34	 Q5: 1
14	 	 	18	 Q5: 1
15	 	 	9	 Q5: 1
16	 	 	19	 Q2: 2
17	 	 	25	 Q6: 1
18	 	 	11	 Q2: 0
19	 	 	26	 Q1: 2
20	 	 	35	 Q7: 2
21	 	 	31	 Q2: 0
22	 	 	29	 Q8: 2
23	 	 	38	 Q5: 1	 	9
24	 	 	26	 Q2: 0
25	 	 	27	 Q0: 1
26	 	 	11	 Q3: 2
27	 	 	37	 Q5: 1
28	 	 	27	 Q1: 2
29	 	 	29	 Q3: 2
30	 	 	18	 Q5: 1
31	 	 	27	 Q5: 2
32	 	 	10	 Q2: 1	 	16	20	4
33	 	 	18	 Q8: 0	 	15
34	 	 	26	 Q1: 0
35	 	 	40	 Q0: 2	 	18
36	 	 	19	 Q1: 2
37	 	 	30	 Q0: 2	 	18
38	 	 	37	 Q0: 2
39	 	 	35	 Q5: 0	 	20
40	 	 	35	 Q5: 2
41	 	 	12	 Q2: 2
42	 	 	40	 Q6: 1	 	30
43	 	 	40	 Q1: 0
44	 	 	23	 Q2: 0
45	 	 	23	 Q5: 1	 	27
46	 	 	38	 Q0: 1
47	 	 	8	 Q8: 0	 	14
48	 	 	9	 Q0: 1	 	46	15
49	 	 	17	 Q6: 1
50	 	 	32	 Q7: 0	 	41	49
51	 	 	31	 Q5: 1	 	38
52	 	 	34	 Q3: 2
53	 	 	22	 Q3: 2
54	 	 	18	 Q0: 2	 	29
55	 	 	10	 Q3: 1	 	51
56	 	 	26	 Q2: 0
57	 	 	18	 Q2: 0	 	4	8	53
58	 	 	9	 Q8: 2	 	11	49
59	 	 	14	 Q1: 2	 	34	11
60	 	 	32	 Q2: 0	 	42
61	 	 	19	 Q1: 0	 	52
62	 	 	10	 Q2: 1	 	54	28
63	 	 	29	 Q2: 1	 	27
64	 	 	36	 Q6: 1	 	22	30
65	 	 	32	 Q2: 0	 	41
66	 	 	36	 Q3: 2
67	 	 	25	 Q5: 0
68	 	 	18	 Q5: 2	 	60
69	 	 	23	 Q5: 1	 	32
70	 	 	22	 Q0: 1
71	 	 	10	 Q6: 1	 	14
72	 	 	19	 Q1: 1
73	 	 	29	 Q0: 2
74	 	 	24	 Q3: 1
75	 	 	26	 Q6: 0	 	56	60	61	74
76	 	 	27	 Q5: 2	 	43
77	 	 	40	 Q3: 2	 	76
78	 	 	24	 Q8: 2	 	18
79	 	 	9	 Q7: 2
80	 	 	29	 Q0: 1
81	 	 	25	 Q7: 0
82	 	 	11	 Q3: 1	 	5
83	 	 	13	 Q3: 1
84	 	 	19	 Q5: 2	 	42	48
85	 	 	14	 Q1: 1
86	 	 	38	 Q3: 1
87	 	 	28	 Q6: 0	 	1	65
88	 	 	9	 Q4: 2	 	62
89	 	 	14	 Q7: 2	 	42
90	 	 	22	 Q3: 1	 	33	50	46
91	 	 	20	 Q8: 2	 	86
92	 	 	24	 Q1: 1
93	 	 	19	 Q1: 0
94	 	 	23	 Q7: 0	 	28
95	 	 	9	 Q8: 2	 	76
96	 	 	26	 Q2: 1
97	 	 	14	 Q5: 1	 	47	5
98	 	 	37	 Q0: 1	 	55
99	 	 	14	 Q1: 1	 	25	80	94
100	 	 	39	 Q5: 1	 	27	99
====================================================================================================================
